15	2	2
6888	6888	
613	326	339	
918	557	558	
921	430	455	
889	231	243	
519	467	482	
0	818	893	
789	331	332	
875	874	889	
443	905	965	
6	560	602	
323	828	838	
867	806	855	
802	416	444	
843	793	819	
220	843	863	
